(set-logic LIA)
(synth-fun next ((brake Int) (distance Int) (speed Int) (throttle Int) (ignition Bool) (time Int) ) Int
	((Start Int) (Var Int) (StartBool Bool))
	((Start Int (
				 1
				 4
				 5
				 7
				 (ite StartBool Start Start)))

	(Var Int (
			 0
			 1
			 2
			 3
			 370
			 610
			 brake
			 distance
			 speed
			 throttle
			 time
			 (+ Var Var)						
			 (- Var Var)						
			 (* Var Var)))

	(StartBool Bool (
				 	 ignition
					(= Var Var)						
					(>= Var Var)						
					(<= Var Var)						
					(and StartBool StartBool)			
					(or  StartBool StartBool)				
					(not StartBool)))))

(constraint (= (next 0 0 0 0 true 746 ) 5))
(constraint (= (next 0 0 0 0 true 182 ) 7))
(constraint (= (next 0 0 5 1 true 1044 ) 4))
(constraint (= (next 0 0 5 1 true 467 ) 1))

(check-synth)
